p cnf 34 102
21 22 0
-1 -4 0
-1 -8 0
-1 -11 0
-1 -16 0
-1 -23 0
-1 -25 0
-1 -29 0
-4 -8 0
-4 -11 0
-4 -16 0
-4 -23 0
-4 -25 0
-4 -29 0
-8 -11 0
-8 -16 0
-8 -23 0
-8 -25 0
-8 -29 0
-11 -16 0
-11 -23 0
-11 -25 0
-11 -29 0
-16 -23 0
-16 -25 0
-16 -29 0
-23 -25 0
-23 -29 0
-25 -29 0
-5 -12 0
-5 -17 0
-5 -24 0
-5 -30 0
-5 -32 0
-12 -17 0
-12 -24 0
-12 -30 0
-12 -32 0
-17 -24 0
-17 -30 0
-17 -32 0
-24 -30 0
-24 -32 0
-30 -32 0
-2 -9 0
-2 -13 0
-2 -18 0
-2 -21 0
-2 -26 0
-9 -13 0
-9 -18 0
-9 -21 0
-9 -26 0
-13 -18 0
-13 -21 0
-13 -26 0
-18 -21 0
-18 -26 0
-21 -26 0
-3 -6 0
-3 -10 0
-3 -14 0
-3 -19 0
-3 -27 0
-3 -31 0
-3 -33 0
-6 -10 0
-6 -14 0
-6 -19 0
-6 -27 0
-6 -31 0
-6 -33 0
-10 -14 0
-10 -19 0
-10 -27 0
-10 -31 0
-10 -33 0
-14 -19 0
-14 -27 0
-14 -31 0
-14 -33 0
-19 -27 0
-19 -31 0
-19 -33 0
-27 -31 0
-27 -33 0
-31 -33 0
-7 -15 0
-7 -20 0
-7 -22 0
-7 -28 0
-7 -34 0
-15 -20 0
-15 -22 0
-15 -28 0
-15 -34 0
-20 -22 0
-20 -28 0
-20 -34 0
-22 -28 0
-22 -34 0
-28 -34 0
